NAME          COPTPROB
OBJSENSE
  MIN
ROWS
 N  __OBJ___
 L  C2      
 L  C3      
 L  C5      
 L  C6      
 L  C7      
 L  C8      
 L  C13     
 L  C17     
 L  C20     
 L  C22     
 L  C23     
 L  C24     
 L  C25     
 L  C26     
 L  C27     
 L  C29     
 L  C31     
 L  C32     
 L  C33     
 L  C34     
 L  C35     
 L  C38     
 L  C39     
 L  C42     
 L  C44     
 L  C45     
 L  C46     
 L  C47     
 L  C48     
 L  C49     
 L  C50     
 L  C51     
 L  C53     
 L  C55     
 L  C56     
 L  C57     
 L  C58     
 L  C59     
 L  C61     
 L  C62     
 L  C64     
 L  C65     
 L  C66     
 L  C67     
 L  C72     
 L  C75     
 L  C76     
 L  C77     
 L  C78     
 L  C79     
 L  C80     
 L  C81     
 L  C84     
 L  C86     
 L  C87     
 L  C88     
 L  C93     
 L  C94     
 L  C97     
 L  C99     
 L  C101    
 L  C102    
 L  C103    
 L  C104    
 L  C109    
 L  C111    
 L  C115    
 L  C116    
 L  C119    
 L  C120    
 L  C123    
 L  C124    
 L  C127    
 L  C128    
 L  C129    
 L  C131    
 L  C133    
 L  C135    
 L  C137    
 L  C138    
 L  C139    
 L  C142    
 L  C143    
 L  C144    
 L  C145    
 L  C147    
 L  C151    
 L  C152    
 L  C155    
 L  C156    
 L  C157    
 L  C158    
 L  C159    
 L  C160    
 L  C161    
 L  C163    
 L  C164    
 L  C165    
 L  C170    
 L  C172    
 L  C174    
 L  C176    
 L  C177    
 L  C178    
 L  C181    
 L  C183    
 L  C184    
 L  C189    
 L  C192    
 L  C193    
 L  C197    
 L  C198    
 L  C199    
 L  C200    
 L  C201    
 L  C204    
 L  C205    
 L  C206    
 L  C207    
 L  C208    
 L  C210    
 L  C212    
 L  C213    
 L  C214    
 L  C215    
 L  C216    
 L  C217    
 L  C218    
 L  C220    
 L  C221    
 L  C222    
 L  C224    
 L  C225    
 L  C226    
 L  C227    
 L  C228    
 L  C230    
 L  C232    
 L  C238    
 L  C239    
 L  C242    
 L  C243    
 L  C244    
 L  C245    
 L  C251    
 L  C252    
 L  C254    
 L  C255    
 L  C256    
 L  C258    
 L  C261    
 L  C263    
 L  C264    
 L  C267    
 L  C268    
 L  C271    
 L  C272    
 L  C274    
 L  C275    
 L  C276    
 L  C277    
 L  C278    
 L  C280    
 L  C281    
 L  C282    
 L  C284    
 L  C285    
 L  C288    
 L  C290    
 L  C291    
 L  C295    
 L  C296    
 L  C297    
 L  C298    
 L  C303    
 L  C304    
 L  C305    
 L  C306    
 L  C308    
 L  C310    
 L  C312    
 L  C314    
 L  C316    
 L  C317    
 L  C321    
 L  C322    
 L  C325    
 L  C327    
 L  C331    
 L  C332    
 L  C334    
 L  C335    
 L  C338    
 L  C339    
 L  C341    
 L  C343    
 L  C344    
 L  C345    
 L  C346    
 L  C349    
 L  C350    
 L  C352    
 L  C353    
 L  C354    
 L  C355    
 L  C356    
 L  C357    
 L  C358    
 L  C361    
 L  C364    
 L  C365    
 L  C369    
 L  C370    
 L  C371    
 L  C372    
 L  C373    
 L  C374    
 L  C375    
 L  C377    
 L  C380    
 L  C381    
 L  C382    
 L  C384    
 L  C385    
 L  C386    
 L  C389    
 L  C390    
 L  C391    
 L  C393    
 L  C396    
 L  C397    
 L  C398    
 L  C401    
 L  C402    
 L  C405    
 L  C406    
 L  C407    
 L  C408    
 L  C409    
 L  C411    
 L  C413    
 L  C414    
 L  C415    
 L  C416    
 L  C417    
 L  C418    
 L  C419    
 L  C420    
 L  C421    
 L  C422    
 L  C423    
 L  C424    
 L  C425    
 L  C428    
 L  C433    
 L  C434    
 L  C435    
 L  C436    
 L  C437    
 L  C442    
 L  C444    
 L  C445    
 L  C446    
 L  C447    
 L  C448    
 L  C451    
 L  C452    
 L  C454    
 L  C456    
 L  C458    
 L  C460    
 L  C465    
 L  C469    
 L  C470    
 L  C471    
 L  C472    
 L  C474    
 L  C479    
 L  C480    
 L  C481    
 L  C484    
 L  C485    
 L  C487    
 L  C490    
 L  C493    
 L  C494    
 L  C495    
 L  C502    
 L  C503    
 L  C508    
 L  C510    
 L  C512    
 L  C516    
 L  C518    
 L  C519    
 L  C520    
 L  C521    
 L  C523    
 L  C526    
 L  C529    
 L  C531    
 L  C533    
 L  C534    
 L  C536    
 L  C537    
 L  C538    
 L  C539    
 L  C540    
 L  C542    
 L  C543    
 L  C546    
 L  C550    
 L  C554    
 L  C558    
 L  C559    
 L  C560    
COLUMNS
    MARKER    'MARKER'                 'INTORG'
    x2        __OBJ___  -1
    x2        C6        1
    x2        C48       1
    x2        C50       1
    x2        C75       1
    x2        C244      1
    x2        C276      1
    x2        C516      1
    x3        __OBJ___  -1
    x3        C7        1
    x3        C45       1
    x3        C81       1
    x3        C84       1
    x3        C111      1
    x3        C161      1
    x3        C183      1
    x3        C216      1
    x3        C225      1
    x3        C227      1
    x3        C272      1
    x3        C305      1
    x3        C335      1
    x3        C371      1
    x3        C401      1
    x4        __OBJ___  -1
    x4        C25       1
    x4        C47       1
    x4        C55       1
    x4        C278      1
    x7        __OBJ___  -1
    x7        C24       1
    x7        C49       1
    x7        C50       1
    x7        C61       1
    x7        C64       1
    x7        C101      1
    x7        C109      1
    x7        C137      1
    x7        C139      1
    x7        C144      1
    x7        C155      1
    x7        C164      1
    x7        C215      1
    x7        C314      1
    x7        C334      1
    x7        C350      1
    x7        C422      1
    x7        C445      1
    x7        C452      1
    x10       __OBJ___  -1
    x10       C66       1
    x10       C80       1
    x10       C137      1
    x10       C143      1
    x10       C213      1
    x10       C217      1
    x10       C218      1
    x10       C261      1
    x10       C314      1
    x10       C470      1
    x11       __OBJ___  -1
    x11       C64       1
    x11       C78       1
    x11       C137      1
    x11       C145      1
    x11       C178      1
    x11       C197      1
    x11       C204      1
    x11       C239      1
    x11       C242      1
    x11       C268      1
    x11       C353      1
    x11       C358      1
    x11       C365      1
    x11       C409      1
    x11       C434      1
    x11       C445      1
    x11       C471      1
    x11       C494      1
    x11       C521      1
    x11       C543      1
    x12       __OBJ___  -1
    x12       C34       1
    x12       C47       1
    x12       C93       1
    x12       C133      1
    x12       C145      1
    x12       C206      1
    x12       C212      1
    x12       C230      1
    x12       C274      1
    x12       C520      1
    x12       C543      1
    x12       C558      1
    x13       __OBJ___  -1
    x13       C32       1
    x13       C77       1
    x13       C160      1
    x13       C239      1
    x13       C291      1
    x13       C350      1
    x13       C357      1
    x13       C445      1
    x13       C494      1
    x13       C518      1
    x14       __OBJ___  -1
    x14       C189      1
    x14       C218      1
    x14       C518      1
    x14       C533      1
    x15       __OBJ___  -1
    x15       C49       1
    x15       C64       1
    x15       C263      1
    x15       C332      1
    x15       C460      1
    x15       C479      1
    x15       C493      1
    x16       __OBJ___  -1
    x16       C3        1
    x16       C33       1
    x16       C48       1
    x16       C88       1
    x16       C99       1
    x16       C103      1
    x16       C165      1
    x16       C181      1
    x16       C204      1
    x16       C305      1
    x16       C312      1
    x16       C365      1
    x16       C373      1
    x17       __OBJ___  -1
    x17       C49       1
    x17       C53       1
    x17       C230      1
    x18       __OBJ___  -1
    x18       C67       1
    x18       C123      1
    x18       C147      1
    x18       C152      1
    x18       C170      1
    x18       C205      1
    x18       C225      1
    x18       C382      1
    x18       C402      1
    x18       C406      1
    x18       C454      1
    x18       C558      1
    x19       __OBJ___  -1
    x19       C45       1
    x19       C256      1
    x19       C335      1
    x19       C350      1
    x20       __OBJ___  -1
    x20       C127      1
    x20       C163      1
    x20       C177      1
    x20       C200      1
    x20       C322      1
    x20       C371      1
    x20       C422      1
    x20       C435      1
    x20       C446      1
    x21       __OBJ___  -1
    x21       C65       1
    x21       C192      1
    x21       C295      1
    x21       C446      1
    x21       C479      1
    x21       C512      1
    x22       __OBJ___  -1
    x22       C222      1
    x22       C308      1
    x22       C332      1
    x22       C465      1
    x23       __OBJ___  -1
    x23       C23       1
    x23       C176      1
    x23       C228      1
    x23       C255      1
    x23       C537      1
    x23       C543      1
    x24       __OBJ___  -1
    x24       C58       1
    x24       C131      1
    x24       C156      1
    x24       C207      1
    x24       C224      1
    x24       C277      1
    x24       C282      1
    x24       C296      1
    x24       C298      1
    x24       C325      1
    x24       C418      1
    x24       C487      1
    x24       C516      1
    x24       C539      1
    x24       C560      1
    x25       __OBJ___  -1
    x25       C24       1
    x25       C94       1
    x25       C103      1
    x25       C345      1
    x25       C436      1
    x27       __OBJ___  -1
    x27       C67       1
    x27       C78       1
    x27       C104      1
    x27       C243      1
    x27       C317      1
    x27       C490      1
    x28       __OBJ___  -1
    x28       C45       1
    x28       C214      1
    x28       C227      1
    x28       C389      1
    x28       C409      1
    x29       __OBJ___  -1
    x29       C32       1
    x29       C72       1
    x29       C76       1
    x29       C79       1
    x29       C142      1
    x29       C474      1
    x30       __OBJ___  -1
    x30       C53       1
    x30       C57       1
    x30       C157      1
    x30       C252      1
    x30       C316      1
    x30       C397      1
    x30       C411      1
    x30       C423      1
    x30       C508      1
    x31       __OBJ___  -1
    x31       C84       1
    x31       C172      1
    x31       C199      1
    x31       C381      1
    x31       C391      1
    x31       C437      1
    x31       C451      1
    x32       __OBJ___  -1
    x32       C39       1
    x32       C44       1
    x32       C242      1
    x32       C354      1
    x32       C382      1
    x32       C456      1
    x33       __OBJ___  -1
    x33       C373      1
    x33       C560      1
    x34       __OBJ___  -1
    x34       C181      1
    x34       C296      1
    x34       C346      1
    x34       C420      1
    x35       __OBJ___  -1
    x35       C46       1
    x35       C226      1
    x35       C242      1
    x35       C372      1
    x35       C381      1
    x35       C487      1
    x35       C546      1
    x35       C550      1
    x37       __OBJ___  -1
    x37       C2        1
    x37       C158      1
    x37       C282      1
    x37       C454      1
    x38       __OBJ___  -1
    x38       C123      1
    x38       C197      1
    x38       C239      1
    x38       C280      1
    x38       C364      1
    x38       C365      1
    x38       C413      1
    x38       C480      1
    x38       C540      1
    x39       __OBJ___  -1
    x39       C139      1
    x39       C428      1
    x39       C558      1
    x40       __OBJ___  -1
    x40       C79       1
    x40       C88       1
    x40       C267      1
    x40       C271      1
    x40       C341      1
    x40       C361      1
    x40       C495      1
    x40       C508      1
    x40       C510      1
    x41       __OBJ___  -1
    x41       C25       1
    x41       C116      1
    x41       C217      1
    x41       C232      1
    x41       C238      1
    x41       C310      1
    x41       C536      1
    x42       __OBJ___  -1
    x42       C31       1
    x42       C34       1
    x42       C86       1
    x42       C138      1
    x42       C276      1
    x42       C310      1
    x42       C393      1
    x42       C417      1
    x43       __OBJ___  -1
    x43       C50       1
    x43       C184      1
    x43       C406      1
    x44       __OBJ___  -1
    x44       C213      1
    x44       C254      1
    x44       C364      1
    x44       C377      1
    x44       C472      1
    x45       __OBJ___  -1
    x45       C72       1
    x45       C116      1
    x45       C452      1
    x47       __OBJ___  -1
    x47       C232      1
    x47       C369      1
    x47       C472      1
    x47       C533      1
    x48       __OBJ___  -1
    x48       C128      1
    x48       C197      1
    x48       C245      1
    x48       C290      1
    x48       C308      1
    x48       C448      1
    x49       __OBJ___  -1
    x49       C23       1
    x49       C143      1
    x49       C227      1
    x50       __OBJ___  -1
    x50       C13       1
    x50       C59       1
    x50       C220      1
    x50       C258      1
    x50       C276      1
    x50       C291      1
    x50       C370      1
    x50       C460      1
    x50       C503      1
    x51       __OBJ___  -1
    x51       C322      1
    x51       C370      1
    x51       C377      1
    x52       __OBJ___  -1
    x52       C111      1
    x52       C164      1
    x52       C251      1
    x52       C314      1
    x52       C495      1
    x52       C531      1
    x53       __OBJ___  -1
    x53       C59       1
    x53       C238      1
    x53       C251      1
    x53       C390      1
    x53       C420      1
    x53       C559      1
    x54       __OBJ___  -1
    x54       C142      1
    x54       C215      1
    x54       C297      1
    x55       __OBJ___  -1
    x55       C29       1
    x55       C65       1
    x55       C183      1
    x55       C272      1
    x55       C397      1
    x55       C424      1
    x56       __OBJ___  -1
    x56       C145      1
    x56       C349      1
    x56       C408      1
    x56       C436      1
    x57       __OBJ___  -1
    x57       C144      1
    x57       C255      1
    x57       C284      1
    x57       C479      1
    x58       __OBJ___  -1
    x58       C5        1
    x58       C8        1
    x58       C42       1
    x58       C424      1
    x58       C494      1
    x59       __OBJ___  -1
    x59       C5        1
    x59       C13       1
    x59       C198      1
    x59       C210      1
    x59       C277      1
    x59       C304      1
    x59       C502      1
    x60       __OBJ___  -1
    x60       C352      1
    x60       C402      1
    x60       C472      1
    x61       __OBJ___  -1
    x61       C102      1
    x61       C151      1
    x61       C177      1
    x61       C184      1
    x61       C210      1
    x61       C456      1
    x62       __OBJ___  -1
    x62       C29       1
    x62       C550      1
    x63       __OBJ___  -1
    x63       C77       1
    x63       C380      1
    x63       C428      1
    x64       __OBJ___  -1
    x64       C206      1
    x64       C261      1
    x65       __OBJ___  -1
    x65       C6        1
    x65       C38       1
    x65       C56       1
    x65       C386      1
    x65       C451      1
    x65       C458      1
    x67       __OBJ___  -1
    x67       C176      1
    x67       C189      1
    x67       C375      1
    x67       C415      1
    x67       C435      1
    x68       __OBJ___  -1
    x68       C76       1
    x68       C170      1
    x68       C502      1
    x68       C546      1
    x69       __OBJ___  -1
    x69       C55       1
    x69       C164      1
    x70       __OBJ___  -1
    x70       C156      1
    x70       C216      1
    x70       C339      1
    x70       C448      1
    x71       __OBJ___  -1
    x71       C93       1
    x71       C199      1
    x71       C339      1
    x71       C357      1
    x72       __OBJ___  -1
    x72       C51       1
    x72       C312      1
    x72       C422      1
    x72       C474      1
    x73       __OBJ___  -1
    x73       C201      1
    x73       C325      1
    x73       C353      1
    x73       C385      1
    x73       C458      1
    x74       __OBJ___  -1
    x74       C120      1
    x74       C284      1
    x74       C349      1
    x75       __OBJ___  -1
    x75       C3        1
    x75       C8        1
    x75       C147      1
    x75       C264      1
    x75       C331      1
    x76       __OBJ___  -1
    x76       C304      1
    x76       C327      1
    x76       C416      1
    x78       __OBJ___  -1
    x78       C75       1
    x78       C346      1
    x78       C407      1
    x78       C542      1
    x79       __OBJ___  -1
    x79       C7        1
    x79       C20       1
    x79       C101      1
    x80       __OBJ___  -1
    x80       C66       1
    x80       C123      1
    x81       __OBJ___  -1
    x81       C208      1
    x81       C224      1
    x81       C281      1
    x81       C407      1
    x81       C490      1
    x81       C560      1
    x82       __OBJ___  -1
    x82       C214      1
    x82       C264      1
    x82       C295      1
    x82       C385      1
    x83       __OBJ___  -1
    x83       C208      1
    x83       C358      1
    x83       C451      1
    x84       __OBJ___  -1
    x84       C20       1
    x84       C97       1
    x84       C160      1
    x84       C539      1
    x85       __OBJ___  -1
    x85       C331      1
    x85       C355      1
    x85       C361      1
    x85       C408      1
    x85       C484      1
    x85       C536      1
    x86       __OBJ___  -1
    x86       C245      1
    x86       C380      1
    x86       C534      1
    x86       C542      1
    x87       __OBJ___  -1
    x87       C56       1
    x87       C131      1
    x87       C334      1
    x88       __OBJ___  -1
    x88       C212      1
    x88       C386      1
    x88       C414      1
    x89       __OBJ___  -1
    x89       C193      1
    x89       C355      1
    x89       C401      1
    x90       __OBJ___  -1
    x90       C39       1
    x90       C120      1
    x90       C161      1
    x90       C519      1
    x91       __OBJ___  -1
    x91       C193      1
    x91       C356      1
    x91       C419      1
    x91       C433      1
    x91       C470      1
    x91       C493      1
    x91       C538      1
    x92       __OBJ___  -1
    x92       C207      1
    x92       C510      1
    x92       C526      1
    x93       __OBJ___  -1
    x93       C161      1
    x93       C280      1
    x93       C401      1
    x93       C405      1
    x93       C485      1
    x94       __OBJ___  -1
    x94       C119      1
    x94       C159      1
    x94       C220      1
    x94       C306      1
    x94       C444      1
    x94       C537      1
    x95       __OBJ___  -1
    x95       C22       1
    x95       C94       1
    x95       C205      1
    x95       C521      1
    x96       __OBJ___  -1
    x96       C38       1
    x96       C115      1
    x96       C138      1
    x96       C200      1
    x96       C425      1
    x97       __OBJ___  -1
    x97       C17       1
    x97       C268      1
    x97       C303      1
    x97       C352      1
    x97       C415      1
    x98       __OBJ___  -1
    x98       C129      1
    x98       C151      1
    x98       C172      1
    x99       __OBJ___  -1
    x99       C22       1
    x99       C127      1
    x99       C284      1
    x99       C442      1
    x100      __OBJ___  -1
    x100      C183      1
    x100      C306      1
    x101      __OBJ___  -1
    x101      C99       1
    x101      C128      1
    x101      C411      1
    x101      C447      1
    x102      __OBJ___  -1
    x102      C144      1
    x102      C540      1
    x103      __OBJ___  -1
    x103      C222      1
    x103      C271      1
    x103      C321      1
    x103      C374      1
    x103      C425      1
    x104      __OBJ___  -1
    x104      C44       1
    x104      C344      1
    x104      C393      1
    x104      C485      1
    x105      __OBJ___  -1
    x105      C226      1
    x105      C374      1
    x105      C398      1
    x105      C484      1
    x106      __OBJ___  -1
    x106      C26       1
    x106      C86       1
    x106      C275      1
    x106      C369      1
    x106      C398      1
    x107      __OBJ___  -1
    x107      C26       1
    x107      C254      1
    x107      C512      1
    x108      __OBJ___  -1
    x108      C124      1
    x108      C275      1
    x108      C341      1
    x108      C384      1
    x108      C529      1
    x108      C554      1
    x109      __OBJ___  -1
    x109      C115      1
    x109      C152      1
    x109      C434      1
    x109      C538      1
    x110      __OBJ___  -1
    x110      C97       1
    x110      C174      1
    x110      C204      1
    x111      __OBJ___  -1
    x111      C80       1
    x111      C335      1
    x112      __OBJ___  -1
    x112      C2        1
    x112      C228      1
    x113      __OBJ___  -1
    x113      C42       1
    x113      C224      1
    x113      C520      1
    x114      __OBJ___  -1
    x114      C303      1
    x114      C414      1
    x114      C469      1
    x115      __OBJ___  -1
    x115      C46       1
    x115      C57       1
    x115      C327      1
    x115      C417      1
    x116      __OBJ___  -1
    x116      C158      1
    x116      C281      1
    x116      C316      1
    x116      C372      1
    x117      __OBJ___  -1
    x117      C133      1
    x117      C285      1
    x117      C297      1
    x117      C375      1
    x118      __OBJ___  -1
    x118      C35       1
    x118      C258      1
    x118      C288      1
    x118      C554      1
    x119      __OBJ___  -1
    x119      C61       1
    x119      C280      1
    x120      __OBJ___  -1
    x120      C165      1
    x120      C184      1
    x120      C317      1
    x120      C396      1
    x120      C421      1
    x121      __OBJ___  -1
    x121      C256      1
    x121      C325      1
    x122      __OBJ___  -1
    x122      C33       1
    x122      C87       1
    x122      C198      1
    x122      C391      1
    x122      C529      1
    x123      __OBJ___  -1
    x123      C109      1
    x123      C274      1
    x123      C384      1
    x123      C447      1
    x124      __OBJ___  -1
    x124      C17       1
    x124      C51       1
    x124      C221      1
    x124      C338      1
    x124      C465      1
    x124      C481      1
    x125      __OBJ___  -1
    x125      C418      1
    x125      C442      1
    x125      C531      1
    x126      __OBJ___  -1
    x126      C290      1
    x126      C433      1
    x126      C523      1
    x127      __OBJ___  -1
    x127      C159      1
    x127      C277      1
    x128      __OBJ___  -1
    x128      C298      1
    x128      C396      1
    x129      __OBJ___  -1
    x129      C129      1
    x129      C174      1
    x129      C534      1
    x130      __OBJ___  -1
    x130      C298      1
    x130      C344      1
    x130      C559      1
    x131      __OBJ___  -1
    x131      C35       1
    x131      C58       1
    x131      C285      1
    x132      __OBJ___  -1
    x132      C201      1
    x132      C288      1
    x132      C356      1
    x133      __OBJ___  -1
    x133      C61       1
    x133      C124      1
    x133      C343      1
    x133      C437      1
    x134      __OBJ___  -1
    x134      C104      1
    x134      C321      1
    x134      C390      1
    x135      __OBJ___  -1
    x135      C102      1
    x135      C419      1
    x135      C423      1
    x135      C469      1
    x136      __OBJ___  -1
    x136      C31       1
    x136      C87       1
    x136      C354      1
    x136      C389      1
    x137      __OBJ___  -1
    x137      C413      1
    x137      C519      1
    x138      __OBJ___  -1
    x138      C27       1
    x138      C81       1
    x138      C343      1
    x138      C523      1
    x139      __OBJ___  -1
    x139      C163      1
    x139      C178      1
    x140      __OBJ___  -1
    x140      C147      1
    x140      C405      1
    x142      __OBJ___  -1
    x142      C244      1
    x142      C480      1
    x142      C481      1
    x143      __OBJ___  -1
    x143      C135      1
    x143      C155      1
    x143      C338      1
    x143      C416      1
    x144      __OBJ___  -1
    x144      C119      1
    x144      C345      1
    x144      C471      1
    x145      __OBJ___  -1
    x145      C27       1
    x145      C252      1
    x145      C278      1
    x145      C526      1
    x146      __OBJ___  -1
    x146      C221      1
    x146      C263      1
    x146      C267      1
    x147      __OBJ___  -1
    x147      C62       1
    x147      C157      1
    x147      C421      1
    x148      __OBJ___  -1
    x148      C272      1
    x148      C353      1
    x149      __OBJ___  -1
    x149      C135      1
    x149      C192      1
    x149      C444      1
    x150      __OBJ___  -1
    x150      C62       1
    x150      C243      1
    x150      C503      1
    MARKER    'MARKER'                 'INTEND'
RHS
    RHS       __OBJ___  3
    RHS       C2        1
    RHS       C3        1
    RHS       C5        1
    RHS       C6        1
    RHS       C7        1
    RHS       C8        1
    RHS       C13       1
    RHS       C17       1
    RHS       C20       1
    RHS       C22       1
    RHS       C23       1
    RHS       C24       1
    RHS       C25       1
    RHS       C26       1
    RHS       C27       1
    RHS       C29       1
    RHS       C31       1
    RHS       C32       1
    RHS       C33       1
    RHS       C34       1
    RHS       C35       1
    RHS       C38       1
    RHS       C39       1
    RHS       C42       1
    RHS       C44       1
    RHS       C45       1
    RHS       C46       1
    RHS       C47       1
    RHS       C48       1
    RHS       C49       1
    RHS       C50       1
    RHS       C51       1
    RHS       C53       1
    RHS       C55       1
    RHS       C56       1
    RHS       C57       1
    RHS       C58       1
    RHS       C59       1
    RHS       C61       1
    RHS       C62       1
    RHS       C64       1
    RHS       C65       1
    RHS       C66       1
    RHS       C67       1
    RHS       C72       1
    RHS       C75       1
    RHS       C76       1
    RHS       C77       1
    RHS       C78       1
    RHS       C79       1
    RHS       C80       1
    RHS       C81       1
    RHS       C84       1
    RHS       C86       1
    RHS       C87       1
    RHS       C88       1
    RHS       C93       1
    RHS       C94       1
    RHS       C97       1
    RHS       C99       1
    RHS       C101      1
    RHS       C102      1
    RHS       C103      1
    RHS       C104      1
    RHS       C109      1
    RHS       C111      1
    RHS       C115      1
    RHS       C116      1
    RHS       C119      1
    RHS       C120      1
    RHS       C123      1
    RHS       C124      1
    RHS       C127      1
    RHS       C128      1
    RHS       C129      1
    RHS       C131      1
    RHS       C133      1
    RHS       C135      1
    RHS       C137      1
    RHS       C138      1
    RHS       C139      1
    RHS       C142      1
    RHS       C143      1
    RHS       C144      1
    RHS       C145      1
    RHS       C147      1
    RHS       C151      1
    RHS       C152      1
    RHS       C155      1
    RHS       C156      1
    RHS       C157      1
    RHS       C158      1
    RHS       C159      1
    RHS       C160      1
    RHS       C161      1
    RHS       C163      1
    RHS       C164      1
    RHS       C165      1
    RHS       C170      1
    RHS       C172      1
    RHS       C174      1
    RHS       C176      1
    RHS       C177      1
    RHS       C178      1
    RHS       C181      1
    RHS       C183      1
    RHS       C184      1
    RHS       C189      1
    RHS       C192      1
    RHS       C193      1
    RHS       C197      1
    RHS       C198      1
    RHS       C199      1
    RHS       C200      1
    RHS       C201      1
    RHS       C204      1
    RHS       C205      1
    RHS       C206      1
    RHS       C207      1
    RHS       C208      1
    RHS       C210      1
    RHS       C212      1
    RHS       C213      1
    RHS       C214      1
    RHS       C215      1
    RHS       C216      1
    RHS       C217      1
    RHS       C218      1
    RHS       C220      1
    RHS       C221      1
    RHS       C222      1
    RHS       C224      1
    RHS       C225      1
    RHS       C226      1
    RHS       C227      1
    RHS       C228      1
    RHS       C230      1
    RHS       C232      1
    RHS       C238      1
    RHS       C239      1
    RHS       C242      1
    RHS       C243      1
    RHS       C244      1
    RHS       C245      1
    RHS       C251      1
    RHS       C252      1
    RHS       C254      1
    RHS       C255      1
    RHS       C256      1
    RHS       C258      1
    RHS       C261      1
    RHS       C263      1
    RHS       C264      1
    RHS       C267      1
    RHS       C268      1
    RHS       C271      1
    RHS       C272      1
    RHS       C274      1
    RHS       C275      1
    RHS       C276      1
    RHS       C277      1
    RHS       C278      1
    RHS       C280      1
    RHS       C281      1
    RHS       C282      1
    RHS       C284      1
    RHS       C285      1
    RHS       C288      1
    RHS       C290      1
    RHS       C291      1
    RHS       C295      1
    RHS       C296      1
    RHS       C297      1
    RHS       C298      1
    RHS       C303      1
    RHS       C304      1
    RHS       C305      1
    RHS       C306      1
    RHS       C308      1
    RHS       C310      1
    RHS       C312      1
    RHS       C314      1
    RHS       C316      1
    RHS       C317      1
    RHS       C321      1
    RHS       C322      1
    RHS       C325      1
    RHS       C327      1
    RHS       C331      1
    RHS       C332      1
    RHS       C334      1
    RHS       C335      1
    RHS       C338      1
    RHS       C339      1
    RHS       C341      1
    RHS       C343      1
    RHS       C344      1
    RHS       C345      1
    RHS       C346      1
    RHS       C349      1
    RHS       C350      1
    RHS       C352      1
    RHS       C353      1
    RHS       C354      1
    RHS       C355      1
    RHS       C356      1
    RHS       C357      1
    RHS       C358      1
    RHS       C361      1
    RHS       C364      1
    RHS       C365      1
    RHS       C369      1
    RHS       C370      1
    RHS       C371      1
    RHS       C372      1
    RHS       C373      1
    RHS       C374      1
    RHS       C375      1
    RHS       C377      1
    RHS       C380      1
    RHS       C381      1
    RHS       C382      1
    RHS       C384      1
    RHS       C385      1
    RHS       C386      1
    RHS       C389      1
    RHS       C390      1
    RHS       C391      1
    RHS       C393      1
    RHS       C396      1
    RHS       C397      1
    RHS       C398      1
    RHS       C401      1
    RHS       C402      1
    RHS       C405      1
    RHS       C406      1
    RHS       C407      1
    RHS       C408      1
    RHS       C409      1
    RHS       C411      1
    RHS       C413      1
    RHS       C414      1
    RHS       C415      1
    RHS       C416      1
    RHS       C417      1
    RHS       C418      1
    RHS       C419      1
    RHS       C420      1
    RHS       C421      1
    RHS       C422      1
    RHS       C423      1
    RHS       C424      1
    RHS       C425      1
    RHS       C428      1
    RHS       C433      1
    RHS       C434      1
    RHS       C435      1
    RHS       C436      1
    RHS       C437      1
    RHS       C442      1
    RHS       C444      1
    RHS       C445      1
    RHS       C446      1
    RHS       C447      1
    RHS       C448      1
    RHS       C451      1
    RHS       C452      1
    RHS       C454      1
    RHS       C456      1
    RHS       C458      1
    RHS       C460      1
    RHS       C465      1
    RHS       C469      1
    RHS       C470      1
    RHS       C471      1
    RHS       C472      1
    RHS       C474      1
    RHS       C479      1
    RHS       C480      1
    RHS       C481      1
    RHS       C484      1
    RHS       C485      1
    RHS       C487      1
    RHS       C490      1
    RHS       C493      1
    RHS       C494      1
    RHS       C495      1
    RHS       C502      1
    RHS       C503      1
    RHS       C508      1
    RHS       C510      1
    RHS       C512      1
    RHS       C516      1
    RHS       C518      1
    RHS       C519      1
    RHS       C520      1
    RHS       C521      1
    RHS       C523      1
    RHS       C526      1
    RHS       C529      1
    RHS       C531      1
    RHS       C533      1
    RHS       C534      1
    RHS       C536      1
    RHS       C537      1
    RHS       C538      1
    RHS       C539      1
    RHS       C540      1
    RHS       C542      1
    RHS       C543      1
    RHS       C546      1
    RHS       C550      1
    RHS       C554      1
    RHS       C558      1
    RHS       C559      1
    RHS       C560      1
BOUNDS
 UP BOUND     x2        1
 UP BOUND     x3        1
 UP BOUND     x4        1
 UP BOUND     x7        1
 UP BOUND     x10       1
 UP BOUND     x11       1
 UP BOUND     x12       1
 UP BOUND     x13       1
 UP BOUND     x14       1
 UP BOUND     x15       1
 UP BOUND     x16       1
 UP BOUND     x17       1
 UP BOUND     x18       1
 UP BOUND     x19       1
 UP BOUND     x20       1
 UP BOUND     x21       1
 UP BOUND     x22       1
 UP BOUND     x23       1
 UP BOUND     x24       1
 UP BOUND     x25       1
 UP BOUND     x27       1
 UP BOUND     x28       1
 UP BOUND     x29       1
 UP BOUND     x30       1
 UP BOUND     x31       1
 UP BOUND     x32       1
 UP BOUND     x33       1
 UP BOUND     x34       1
 UP BOUND     x35       1
 UP BOUND     x37       1
 UP BOUND     x38       1
 UP BOUND     x39       1
 UP BOUND     x40       1
 UP BOUND     x41       1
 UP BOUND     x42       1
 UP BOUND     x43       1
 UP BOUND     x44       1
 UP BOUND     x45       1
 UP BOUND     x47       1
 UP BOUND     x48       1
 UP BOUND     x49       1
 UP BOUND     x50       1
 UP BOUND     x51       1
 UP BOUND     x52       1
 UP BOUND     x53       1
 UP BOUND     x54       1
 UP BOUND     x55       1
 UP BOUND     x56       1
 UP BOUND     x57       1
 UP BOUND     x58       1
 UP BOUND     x59       1
 UP BOUND     x60       1
 UP BOUND     x61       1
 UP BOUND     x62       1
 UP BOUND     x63       1
 UP BOUND     x64       1
 UP BOUND     x65       1
 UP BOUND     x67       1
 UP BOUND     x68       1
 UP BOUND     x69       1
 UP BOUND     x70       1
 UP BOUND     x71       1
 UP BOUND     x72       1
 UP BOUND     x73       1
 UP BOUND     x74       1
 UP BOUND     x75       1
 UP BOUND     x76       1
 UP BOUND     x78       1
 UP BOUND     x79       1
 UP BOUND     x80       1
 UP BOUND     x81       1
 UP BOUND     x82       1
 UP BOUND     x83       1
 UP BOUND     x84       1
 UP BOUND     x85       1
 UP BOUND     x86       1
 UP BOUND     x87       1
 UP BOUND     x88       1
 UP BOUND     x89       1
 UP BOUND     x90       1
 UP BOUND     x91       1
 UP BOUND     x92       1
 UP BOUND     x93       1
 UP BOUND     x94       1
 UP BOUND     x95       1
 UP BOUND     x96       1
 UP BOUND     x97       1
 UP BOUND     x98       1
 UP BOUND     x99       1
 UP BOUND     x100      1
 UP BOUND     x101      1
 UP BOUND     x102      1
 UP BOUND     x103      1
 UP BOUND     x104      1
 UP BOUND     x105      1
 UP BOUND     x106      1
 UP BOUND     x107      1
 UP BOUND     x108      1
 UP BOUND     x109      1
 UP BOUND     x110      1
 UP BOUND     x111      1
 UP BOUND     x112      1
 UP BOUND     x113      1
 UP BOUND     x114      1
 UP BOUND     x115      1
 UP BOUND     x116      1
 UP BOUND     x117      1
 UP BOUND     x118      1
 UP BOUND     x119      1
 UP BOUND     x120      1
 UP BOUND     x121      1
 UP BOUND     x122      1
 UP BOUND     x123      1
 UP BOUND     x124      1
 UP BOUND     x125      1
 UP BOUND     x126      1
 UP BOUND     x127      1
 UP BOUND     x128      1
 UP BOUND     x129      1
 UP BOUND     x130      1
 UP BOUND     x131      1
 UP BOUND     x132      1
 UP BOUND     x133      1
 UP BOUND     x134      1
 UP BOUND     x135      1
 UP BOUND     x136      1
 UP BOUND     x137      1
 UP BOUND     x138      1
 UP BOUND     x139      1
 UP BOUND     x140      1
 UP BOUND     x142      1
 UP BOUND     x143      1
 UP BOUND     x144      1
 UP BOUND     x145      1
 UP BOUND     x146      1
 UP BOUND     x147      1
 UP BOUND     x148      1
 UP BOUND     x149      1
 UP BOUND     x150      1
ENDATA
